c SAT Generator for power-law distributed variable frequencies
c -g u -v 20 -c 91 -k 3 -p 2.750000 -b 3.200000 -f /home/schmidt/Devel/ni-kop-sat/data/ensemble/ruf20-91/ruf20-91-564 -u 1 -U 1 -s 506427265
p cnf 20 91
3 4 11 0
4 -18 -19 0
1 8 -15 0
4 -14 -20 0
9 -10 18 0
5 15 20 0
-8 16 -20 0
11 12 -16 0
3 -4 -11 0
-2 12 -17 0
8 13 -17 0
-3 4 -6 0
-17 -19 -20 0
-2 11 16 0
2 -12 17 0
-2 -9 -10 0
1 16 -17 0
1 10 17 0
-11 -13 -15 0
-7 -18 20 0
3 -6 14 0
8 12 15 0
-5 -6 10 0
-11 -15 19 0
-2 16 -18 0
-8 -17 19 0
-4 -8 -18 0
-3 11 -14 0
-1 10 -12 0
1 -2 -8 0
7 9 11 0
-9 13 14 0
2 12 13 0
4 -7 9 0
3 11 -16 0
-5 6 12 0
-3 -11 -16 0
-1 4 -9 0
5 12 13 0
2 10 19 0
-2 -6 10 0
5 6 8 0
6 10 19 0
4 -9 -15 0
-4 11 12 0
-1 3 8 0
8 -10 11 0
-1 -13 -16 0
-4 17 18 0
-7 -10 -12 0
15 -17 -19 0
-7 -19 -20 0
-5 9 16 0
2 -4 -15 0
3 -18 19 0
-9 14 -20 0
-2 -3 -20 0
1 8 11 0
-5 -15 -18 0
-5 12 -18 0
10 -11 -12 0
5 -14 16 0
-6 -11 -12 0
12 -14 -17 0
-1 -16 17 0
9 10 -18 0
8 15 17 0
1 -3 5 0
-2 3 -20 0
-1 2 -16 0
-7 19 20 0
15 -16 -19 0
7 17 19 0
-10 12 13 0
5 -13 -20 0
-11 16 19 0
-3 12 13 0
5 -7 -11 0
-3 -8 -12 0
-1 9 -10 0
6 11 -19 0
-4 16 -18 0
-2 12 17 0
-8 14 -16 0
7 8 14 0
-7 10 -16 0
-3 -4 16 0
-7 9 -18 0
5 8 9 0
5 11 12 0
-5 -9 17 0
